(declare-const a Real)
(declare-const b Real)
(declare-const c Real)
(assert (= (+ a b c) 3))
(assert (not (<= (+ (* -2 (pow a 4)) (* -2 (pow b 4)) (* -2 (pow c 4)) (* (/ 1 4) (pow (+ (* a c) (* b c) (* 2 a b)) 2)) (* 2 a b (pow c 2))) 0)))
(check-sat)
(get-model)
(exit)